Hg: 50 Atome emty-core PP               
   10.7970000000000     
     1.0000000000000000    0.0000000000000000    0.0000000000000000
     0.0000000000000000    1.0000000000000000    0.0000000000000000
     0.0000000000000000    0.0000000000000000    1.0000000000000000
   Hg
    50
Direct
  0.3003870000000006  0.9725620000000035  0.6799010000000010
  0.1003990000000030  0.8666180000000026  0.8865860000000012
  0.4232489999999984  0.8578440000000001  0.9007900000000006
  0.6135540000000006  0.9445430000000030  0.6808529999999990
  0.9706270000000004  0.6563149999999993  0.8840950000000021
  0.3518570000000025  0.3424189999999996  0.1127719999999997
  0.3225610000000003  0.4353300000000004  0.6833090000000013
  0.8012569999999997  0.9779380000000018  0.9246309999999980
  0.3556129999999982  0.2792079999999970  0.4517540000000011
  0.6108430000000027  0.1511560000000003  0.0091350000000006
  0.6649779999999978  0.5222270000000009  0.6684150000000031
  0.8950480000000027  0.4639629999999997  0.9710919999999987
  0.1434420000000003  0.6055619999999990  0.1162619999999990
  0.1583260000000024  0.3708529999999968  0.8856930000000034
  0.5291449999999998  0.4579049999999967  0.8878509999999977
  0.6238460000000003  0.8988920000000036  0.1354559999999978
  0.8287949999999995  0.2314099999999968  0.1395709999999966
  0.3876490000000032  0.9924830000000000  0.1940039999999996
  0.2901960000000017  0.1081840000000014  0.9337700000000027
  0.7781909999999996  0.9802889999999991  0.4010079999999974
  0.9783830000000009  0.4376010000000008  0.2690699999999993
  0.0860860000000017  0.5155430000000010  0.5715789999999998
  0.6443050000000028  0.4685380000000023  0.1456299999999970
  0.9662750000000031  0.2191619999999972  0.4330280000000002
  0.7970589999999973  0.6628109999999978  0.1494709999999984
  0.2885100000000023  0.7999379999999974  0.3852290000000025
  0.2880299999999991  0.5016699999999972  0.3648129999999981
  0.6657280000000014  0.7136149999999972  0.8356330000000014
  0.9561059999999983  0.9275730000000024  0.1047530000000023
  0.2494340000000008  0.8634910000000033  0.1289420000000021
  0.4313059999999993  0.6348520000000022  0.1249859999999998
  0.5962439999999987  0.7399479999999983  0.3749079999999978
  0.1174529999999976  0.0292910000000006  0.4025239999999997
  0.6105870000000024  0.1855609999999999  0.2731520000000032
  0.4601389999999981  0.0081149999999965  0.4710839999999976
  0.7647210000000015  0.2605649999999997  0.8352849999999989
  0.0279979999999966  0.1345209999999994  0.9182150000000036
  0.1229319999999987  0.1710920000000016  0.6561179999999993
  0.6972149999999999  0.2353200000000015  0.5543130000000005
  0.7925139999999971  0.4992629999999991  0.3998190000000008
  0.9081279999999978  0.3955699999999993  0.6483459999999965
  0.1458780000000033  0.2402239999999978  0.2060850000000016
  0.5419929999999979  0.4825719999999976  0.4010450000000034
  0.4500110000000035  0.6846200000000024  0.6066160000000025
  0.8065969999999965  0.7364480000000029  0.5974170000000001
  0.9987560000000002  0.7422630000000012  0.3346170000000015
  0.2613989999999973  0.6401579999999996  0.8241820000000004
  0.9017350000000022  0.9752980000000022  0.6561870000000027
  0.0752480000000020  0.7858179999999990  0.5874370000000013
  0.4692670000000021  0.1928550000000016  0.6925669999999968
 
  0.00000000E+00  0.00000000E+00  0.00000000E+00
  0.00000000E+00  0.00000000E+00  0.00000000E+00
  0.00000000E+00  0.00000000E+00  0.00000000E+00
  0.00000000E+00  0.00000000E+00  0.00000000E+00
  0.00000000E+00  0.00000000E+00  0.00000000E+00
  0.00000000E+00  0.00000000E+00  0.00000000E+00
  0.00000000E+00  0.00000000E+00  0.00000000E+00
  0.00000000E+00  0.00000000E+00  0.00000000E+00
  0.00000000E+00  0.00000000E+00  0.00000000E+00
  0.00000000E+00  0.00000000E+00  0.00000000E+00
  0.00000000E+00  0.00000000E+00  0.00000000E+00
  0.00000000E+00  0.00000000E+00  0.00000000E+00
  0.00000000E+00  0.00000000E+00  0.00000000E+00
  0.00000000E+00  0.00000000E+00  0.00000000E+00
  0.00000000E+00  0.00000000E+00  0.00000000E+00
  0.00000000E+00  0.00000000E+00  0.00000000E+00
  0.00000000E+00  0.00000000E+00  0.00000000E+00
  0.00000000E+00  0.00000000E+00  0.00000000E+00
  0.00000000E+00  0.00000000E+00  0.00000000E+00
  0.00000000E+00  0.00000000E+00  0.00000000E+00
  0.00000000E+00  0.00000000E+00  0.00000000E+00
  0.00000000E+00  0.00000000E+00  0.00000000E+00
  0.00000000E+00  0.00000000E+00  0.00000000E+00
  0.00000000E+00  0.00000000E+00  0.00000000E+00
  0.00000000E+00  0.00000000E+00  0.00000000E+00
  0.00000000E+00  0.00000000E+00  0.00000000E+00
  0.00000000E+00  0.00000000E+00  0.00000000E+00
  0.00000000E+00  0.00000000E+00  0.00000000E+00
  0.00000000E+00  0.00000000E+00  0.00000000E+00
  0.00000000E+00  0.00000000E+00  0.00000000E+00
  0.00000000E+00  0.00000000E+00  0.00000000E+00
  0.00000000E+00  0.00000000E+00  0.00000000E+00
  0.00000000E+00  0.00000000E+00  0.00000000E+00
  0.00000000E+00  0.00000000E+00  0.00000000E+00
  0.00000000E+00  0.00000000E+00  0.00000000E+00
  0.00000000E+00  0.00000000E+00  0.00000000E+00
  0.00000000E+00  0.00000000E+00  0.00000000E+00
  0.00000000E+00  0.00000000E+00  0.00000000E+00
  0.00000000E+00  0.00000000E+00  0.00000000E+00
  0.00000000E+00  0.00000000E+00  0.00000000E+00
  0.00000000E+00  0.00000000E+00  0.00000000E+00
  0.00000000E+00  0.00000000E+00  0.00000000E+00
  0.00000000E+00  0.00000000E+00  0.00000000E+00
  0.00000000E+00  0.00000000E+00  0.00000000E+00
  0.00000000E+00  0.00000000E+00  0.00000000E+00
  0.00000000E+00  0.00000000E+00  0.00000000E+00
  0.00000000E+00  0.00000000E+00  0.00000000E+00
  0.00000000E+00  0.00000000E+00  0.00000000E+00
  0.00000000E+00  0.00000000E+00  0.00000000E+00
  0.00000000E+00  0.00000000E+00  0.00000000E+00
